param n := 7; 
param K := 3; 
param C := 250; 
param d := 1 50, 2 50, 3 50, 4 150, 5 50, 6 50, 7 50; 
param c : 0 1 2 3 4 5 6 7:= 
0 . 4.5 6.5 7.5 10 13 10 10 
1 8.5 . 1.9 3 2.7 14 12 12 
2 13 5 . 1.1 3.5 16 13 13 
3 12 4.5 4.5 . 2.4 14 12 12 
4 13 6.5 5 6 . 16 13 13 
5 8.5 16 15 16 19 . 2.6 9 
6 6 14 13 14 16 2.6 . 1 
7 5.5 13 12 13 15 3.5 8 .;